Normalized Data/p02_4_normalized_split0.vrp
NAME:p02_4_NORMALIZED_split
BEST_KNOWN: 0
COMMENT: 0
DIMENSION: 299
CAPACITY: 100
EDGE_WEIGHT_FORMAT: FUNCTION
EDGE_WEIGHT_TYPE: EXACT_2D
NODE_COORD_SECTION
1 0.00000 0.00000
2 41 45
3 41 45
4 41 45
5 41 45
6 41 45
7 29 -33
8 29 -33
9 29 -33
10 29 -33
11 29 -33
12 29 -33
13 -40 -29
14 -40 -29
15 43 25
16 34 -34
17 34 -34
18 34 -34
19 44 33
20 44 33
21 44 33
22 18 25
23 18 25
24 18 25
25 18 25
26 -1 -27
27 -1 -27
28 -1 -27
29 -1 -27
30 -1 -27
31 -1 -27
32 -31 41
33 -31 41
34 -31 41
35 -31 41
36 -41 -8
37 -41 -8
38 15 12
39 15 12
40 15 12
41 47 39
42 47 39
43 47 39
44 47 39
45 47 39
46 47 39
47 -20 19
48 -20 19
49 -20 19
50 30 10
51 30 10
52 30 10
53 30 10
54 30 10
55 30 10
56 30 10
57 -26 -21
58 -26 -21
59 -26 -21
60 -26 -21
61 -26 -21
62 -38 50
63 -38 50
64 -38 50
65 -38 50
66 -38 50
67 -38 50
68 -39 -50
69 -39 -50
70 -39 -50
71 -39 -50
72 -39 -50
73 -39 -50
74 49 -4
75 49 -4
76 49 -4
77 49 -4
78 4 48
79 4 48
80 4 48
81 4 48
82 4 48
83 -32 16
84 -32 16
85 -32 16
86 -32 16
87 40 -42
88 40 -42
89 40 -42
90 -36 12
91 -36 12
92 -36 12
93 -36 12
94 -36 12
95 -30 -1
96 -30 -1
97 -30 -1
98 34 -29
99 34 -29
100 34 -29
101 34 -29
102 34 -29
103 34 -29
104 -38 23
105 -38 23
106 21 -1
107 21 -1
108 17 25
109 17 25
110 17 25
111 17 25
112 17 25
113 -7 16
114 -7 16
115 -7 16
116 -7 16
117 -1 -20
118 -1 -20
119 48 -28
120 48 -28
121 48 -28
122 48 -28
123 48 -28
124 48 -28
125 -41 34
126 -41 34
127 -41 34
128 -41 34
129 -41 34
130 -33 36
131 -33 36
132 -33 36
133 6 47
134 6 47
135 6 47
136 6 47
137 46 -47
138 46 -47
139 46 -47
140 -18 -18
141 -18 -18
142 -18 -18
143 -18 -18
144 -18 -18
145 36 -12
146 36 -12
147 36 -12
148 45 -42
149 45 -42
150 45 -42
151 -15 9
152 -15 9
153 45 34
154 -25 0
155 -25 0
156 -25 0
157 -25 0
158 -25 0
159 -25 0
160 -6 31
161 -6 31
162 -6 31
163 -6 31
164 -6 31
165 -6 31
166 -44 -19
167 -44 -19
168 -44 -19
169 -44 -19
170 -44 -19
171 -44 -19
172 13 -38
173 13 -38
174 13 -38
175 13 -38
176 13 -38
177 -48 -17
178 -48 -17
179 -48 -17
180 -26 11
181 -26 11
182 -26 11
183 -26 11
184 -14 -34
185 -14 -34
186 -23 -30
187 -23 -30
188 -23 -30
189 -23 -30
190 -23 -30
191 21 31
192 21 31
193 21 31
194 21 31
195 49 -25
196 49 -25
197 49 -25
198 49 -25
199 49 -25
200 49 -25
201 19 21
202 19 21
203 19 21
204 19 21
205 19 21
206 19 21
207 19 21
208 -16 -7
209 -16 -7
210 -16 -7
211 -16 -7
212 -16 -7
213 -16 -7
214 -16 -40
215 -16 -40
216 -16 -40
217 34 11
218 34 11
219 34 11
220 9 -22
221 9 -22
222 9 -22
223 9 -22
224 9 -22
225 9 -22
226 33 0
227 33 0
228 33 0
229 33 0
230 14 -17
231 14 -17
232 10 32
233 10 32
234 -28 14
235 -14 49
236 -14 49
237 -14 49
238 27 37
239 27 37
240 27 37
241 -29 -50
242 -29 -50
243 -29 -50
244 -29 -50
245 -30 42
246 -14 36
247 -14 36
248 -14 36
249 -14 36
250 -14 36
251 -10 8
252 -10 8
253 -10 8
254 30 -22
255 30 -22
256 30 -22
257 -25 -18
258 -25 -18
259 -25 -18
260 -25 -18
261 -25 -18
262 -25 -18
263 40 -43
264 40 -43
265 40 -43
266 40 -43
267 40 -43
268 24 47
269 24 47
270 24 47
271 24 47
272 24 47
273 9 -7
274 9 -7
275 9 -7
276 9 -7
277 9 -7
278 48 -7
279 48 -7
280 48 -7
281 48 -7
282 48 -7
283 48 -7
284 8 45
285 8 45
286 -12 12
287 -12 12
288 -12 12
289 -12 12
290 -12 12
291 -12 12
292 -10 -24
293 -10 -24
294 -10 -24
295 -20 -50
296 -20 -50
297 -42 41
298 -42 41
299 -42 41
DEMAND_SECTION
1 0
2 10
3 5
4 1
5 1
6 1
7 20
8 10
9 1
10 1
11 1
12 1
13 20
14 20
15 20
16 20
17 20
18 5
19 20
20 10
21 5
22 20
23 10
24 5
25 1
26 20
27 20
28 5
29 1
30 1
31 1
32 20
33 10
34 1
35 1
36 20
37 10
38 20
39 20
40 5
41 20
42 20
43 1
44 1
45 1
46 1
47 10
48 1
49 1
50 20
51 20
52 5
53 1
54 1
55 1
56 1
57 20
58 20
59 5
60 1
61 1
62 20
63 20
64 1
65 1
66 1
67 1
68 10
69 5
70 1
71 1
72 1
73 1
74 20
75 10
76 1
77 1
78 20
79 10
80 5
81 1
82 1
83 20
84 1
85 1
86 1
87 10
88 1
89 1
90 20
91 20
92 5
93 1
94 1
95 20
96 10
97 1
98 10
99 5
100 1
101 1
102 1
103 1
104 10
105 5
106 20
107 20
108 20
109 20
110 5
111 1
112 1
113 10
114 1
115 1
116 1
117 20
118 10
119 10
120 5
121 1
122 1
123 1
124 1
125 20
126 20
127 5
128 1
129 1
130 20
131 10
132 5
133 20
134 20
135 5
136 1
137 10
138 1
139 1
140 20
141 5
142 1
143 1
144 1
145 20
146 20
147 10
148 20
149 10
150 1
151 10
152 5
153 20
154 20
155 20
156 5
157 1
158 1
159 1
160 20
161 10
162 1
163 1
164 1
165 1
166 20
167 5
168 1
169 1
170 1
171 1
172 20
173 10
174 1
175 1
176 1
177 20
178 1
179 1
180 20
181 5
182 1
183 1
184 20
185 1
186 10
187 1
188 1
189 1
190 1
191 20
192 10
193 1
194 1
195 20
196 20
197 5
198 1
199 1
200 1
201 20
202 10
203 5
204 1
205 1
206 1
207 1
208 20
209 10
210 1
211 1
212 1
213 1
214 20
215 10
216 5
217 10
218 1
219 1
220 20
221 10
222 5
223 1
224 1
225 1
226 10
227 1
228 1
229 1
230 10
231 5
232 20
233 10
234 20
235 20
236 10
237 1
238 20
239 1
240 1
241 20
242 10
243 5
244 1
245 20
246 10
247 5
248 1
249 1
250 1
251 10
252 5
253 1
254 20
255 10
256 5
257 10
258 5
259 1
260 1
261 1
262 1
263 10
264 5
265 1
266 1
267 1
268 20
269 1
270 1
271 1
272 1
273 20
274 20
275 1
276 1
277 1
278 20
279 10
280 5
281 1
282 1
283 1
284 20
285 10
286 20
287 10
288 5
289 1
290 1
291 1
292 10
293 5
294 1
295 20
296 5
297 10
298 5
299 1
DEPOT_SECTION
1
-1
EOF