Normalized Data/p02_4_normalized_split0.sol
298 -7 11 9 86 87 88 264 263 266 265 262 137 138 136 149 147 148 101 99 102 100 97 -10 6 8 15 16 17 98 255 253 -14 18 19 20 152 238 237 239 -25 26 30 28 29 27 117 116 -32 33 31 34 64 62 61 63 65 66 244 113 114 115 -36 35 91 89 92 93 90 150 151 -37 39 51 50 49 53 55 54 52 216 218 217 226 227 225 228 -38 24 21 22 110 107 109 108 111 -41 42 43 44 40 45 5 4 2 1 3 271 268 267 270 269 191 193 192 -48 46 47 103 104 82 83 84 85 233 179 180 182 181 -76 74 75 73 279 277 278 281 282 280 145 146 -77 133 132 134 135 284 283 -78 80 81 79 234 236 235 246 245 248 249 247 161 162 159 160 164 163 -106 105 230 229 222 224 223 221 220 219 -112 287 289 286 285 250 251 252 -125 127 126 128 124 296 298 297 131 129 130 288 290 -141 143 142 140 139 60 57 59 58 56 260 256 211 208 210 209 -144 196 195 197 198 194 199 121 122 120 118 119 123 254 -156 155 153 154 157 158 96 95 94 212 207 -173 175 171 172 174 213 215 214 184 183 291 -177 176 178 169 167 170 168 165 166 12 13 261 258 259 257 -189 185 188 187 186 70 68 69 71 72 67 242 243 241 240 294 295 293 292 -204 200 201 205 206 202 203 23 190 232 231 -272 276 273 275 274 0 





OBJ=
2285.789
BEST_KNOWN=
0.000